
  32    1
  10

   0   0  10 2 3 4 5 6 7 8 12 14 16 
  10   4   9 30 28 27 26 20 18 13 11 9 
  10   4   6 30 27 26 20 10 9 
   4   5   8 31 28 27 26 25 17 15 13 
   5  10   8 29 28 27 26 25 23 15 13 
  10   5   6 29 25 24 23 22 17 
   3   5   5 28 25 24 23 18 
  10   9   4 26 25 23 17 
   5   7   3 25 23 17 
   8   9   3 24 19 15 
   7   6   3 23 22 19 
   2   7   2 24 17 
   8  10   3 24 22 21 
   5   7   3 26 23 21 
   2   7   2 22 21 
   2   3   2 26 21 
   1   8   1 19 
   8   6   1 19 
   3   4   1 21 
   3   6   1 22 
   6   9   1 32
  10   4   1 32
   2   6   1 32
   7   6   1 32
   7   4   1 32
   4   5   1 32
   6   5   1 32
   8   5   1 32
   3   8   1 32
   1   3   1 32
   7   3   1 32
   0   0   0 
